\ This file has been generated by DOcplex
\ ENCODING=ISO-8859-1
\Problem name: BMW

Minimize
 obj: 2 x_0_1#2 + 2 x_1_1#3 + 2 x_0_4#6 + 2 x_1_4#7
Subject To
 c1: y_1_2#10 <= 4
 c2: y_1_2#10 >= 1
 c3: y_1_3#11 <= 4
 c4: y_1_3#11 >= 1
 c5: y_1_2#10 <= 4
 c6: y_1_2#10 >= 1
 c7: y_1_3#11 <= 4
 c8: y_1_3#11 >= 1
 c9: y_1_2#10 - x_0_1#2 - x_1_1#3 - x_0_4#6 - x_1_4#7 = 0
 c10: y_1_3#11 - x_0_1#2 - x_1_1#3 - x_0_4#6 - x_1_4#7 = 0
 c11: y_1_2#10 - x_0_1#2 - x_1_1#3 - x_0_4#6 - x_1_4#7 = 0
 c12: y_1_3#11 - x_0_1#2 - x_1_1#3 - x_0_4#6 - x_1_4#7 = 0

Bounds
 0 <= x_0_1 <= 1
 0 <= x_1_1 <= 1
 0 <= x_0_1#2 <= 1
 0 <= x_1_1#3 <= 1
 0 <= x_0_4 <= 1
 0 <= x_1_4 <= 1
 0 <= x_0_4#6 <= 1
 0 <= x_1_4#7 <= 1
       y_1_2 <= 4
       y_1_3 <= 4
       y_1_2#10 <= 4
       y_1_3#11 <= 4

Binaries
 x_0_1 x_1_1 x_0_1#2 x_1_1#3 x_0_4 x_1_4 x_0_4#6 x_1_4#7

Generals
 y_1_2 y_1_3 y_1_2#10 y_1_3#11
End
